Day	0	Optimize a model with 2744 rows, 29476 columns and 257821 nonzeros
Variable types: 280 continuous, 29196 integer (28496 binary)
Coefficient statistics:
  Matrix range     [1e+00, 1e+02]
  Objective range  [1e+00, 2e+03]
  Bounds range     [1e+00, 9e+01]
  RHS range        [1e+00, 3e+03]
Found heuristic solution: objective 430430
Presolve removed 327 rows and 4496 columns
Presolve time: 1.17s
Presolved: 2417 rows, 24980 columns, 196383 nonzeros
Variable types: 0 continuous, 24980 integer (24316 binary)

Root relaxation: objective 3.486810e+05, 381 iterations, 0.05 seconds

    Nodes    |    Current Node    |     Objective Bounds      |     Work
 Expl Unexpl |  Obj  Depth IntInf | Incumbent    BestBd   Gap | It/Node Time

     0     0 348681.000    0   56 430430.000 348681.000  19.0%     -    1s
H    0     0                    350110.00000 348681.000  0.41%     -    1s
H    0     0                    349600.00000 348681.000  0.26%     -    1s
H    0     0                    348790.00000 348681.000  0.03%     -    1s
     0     0 348750.000    0   22 348790.000 348750.000  0.01%     -    1s
     0     0 348750.000    0   41 348790.000 348750.000  0.01%     -    1s
     0     0 348750.000    0   63 348790.000 348750.000  0.01%     -    1s
H    0     0                    348780.00000 348750.000  0.01%     -    1s

Cutting planes:
  Gomory: 3
  Cover: 18
  Clique: 20
  MIR: 22

Explored 0 nodes (1608 simplex iterations) in 1.89 seconds
Thread count was 1 (of 16 available processors)

Solution count 6: 348780 348790 348790 ... 430430
Pool objective bound 348750

Optimal solution found (tolerance 1.00e-04)
Best objective 3.487800000000e+05, best bound 3.487500000000e+05, gap 0.0086%
	MIPObjVal:	348780.0	runtime:	1.8922619819641113	patientsNumber:	140	room Occupancy:	0.25462962962962965	OR Occupancy:	0.20981178648565257
roomCost:	5740.0	genderPolicy:	0.0	transferCost:	100.0	delayCost:	0.0	overCrowdRisk:	0.0	overtime:	0.0	idleRoom:	51940.0	idleOR:	291000.0	eRoomIdle:	0.0	eORIdle:	0.0	roomU:	0.0	orU:	0.0
Day	1	Optimize a model with 2660 rows, 30497 columns and 274283 nonzeros
Variable types: 270 continuous, 30227 integer (29552 binary)
Coefficient statistics:
  Matrix range     [1e+00, 1e+02]
  Objective range  [1e+00, 2e+03]
  Bounds range     [1e+00, 9e+01]
  RHS range        [1e+00, 3e+03]
Found heuristic solution: objective 386785
Presolve removed 361 rows and 3924 columns
Presolve time: 0.61s
Presolved: 2299 rows, 26573 columns, 209993 nonzeros
Variable types: 0 continuous, 26573 integer (25954 binary)

Root relaxation: objective 3.102510e+05, 488 iterations, 0.03 seconds

    Nodes    |    Current Node    |     Objective Bounds      |     Work
 Expl Unexpl |  Obj  Depth IntInf | Incumbent    BestBd   Gap | It/Node Time

     0     0 310251.000    0   42 386785.000 310251.000  19.8%     -    0s
H    0     0                    310471.00000 310251.000  0.07%     -    0s
H    0     0                    310370.00000 310251.000  0.04%     -    0s
     0     0 310320.000    0   16 310370.000 310320.000  0.02%     -    0s
     0     0 310320.000    0   29 310370.000 310320.000  0.02%     -    1s
     0     0 310320.000    0   22 310370.000 310320.000  0.02%     -    1s
     0     0 310333.333    0    8 310370.000 310333.333  0.01%     -    1s
H    0     0                    310350.00000 310333.333  0.01%     -    1s

Cutting planes:
  Gomory: 2
  Cover: 24
  Clique: 82
  MIR: 32

Explored 0 nodes (1738 simplex iterations) in 1.25 seconds
Thread count was 1 (of 16 available processors)

Solution count 5: 310350 310370 310370 ... 386785
Pool objective bound 310334

Optimal solution found (tolerance 1.00e-04)
Best objective 3.103500000000e+05, best bound 3.103340000000e+05, gap 0.0052%
	MIPObjVal:	310350.0	runtime:	1.2478749752044678	patientsNumber:	149	room Occupancy:	0.18518518518518517	OR Occupancy:	0.0
roomCost:	5610.0	genderPolicy:	0.0	transferCost:	0.0	delayCost:	0.0	overCrowdRisk:	0.0	overtime:	0.0	idleRoom:	47240.0	idleOR:	257500.0	eRoomIdle:	0.0	eORIdle:	0.0	roomU:	0.0	orU:	0.0
Day	2	Optimize a model with 2570 rows, 34174 columns and 313157 nonzeros
Variable types: 260 continuous, 33914 integer (33264 binary)
Coefficient statistics:
  Matrix range     [1e+00, 1e+02]
  Objective range  [1e+00, 2e+03]
  Bounds range     [1e+00, 9e+01]
  RHS range        [1e+00, 3e+03]
Found heuristic solution: objective 381990
Presolve removed 303 rows and 4628 columns
Presolve time: 0.75s
Presolved: 2267 rows, 29546 columns, 241041 nonzeros
Variable types: 0 continuous, 29546 integer (28924 binary)

Root relaxation: objective 2.986810e+05, 697 iterations, 0.05 seconds

    Nodes    |    Current Node    |     Objective Bounds      |     Work
 Expl Unexpl |  Obj  Depth IntInf | Incumbent    BestBd   Gap | It/Node Time

     0     0 298681.000    0   68 381990.000 298681.000  21.8%     -    0s
H    0     0                    300703.00000 298681.000  0.67%     -    1s
H    0     0                    299495.00000 298681.000  0.27%     -    1s
H    0     0                    298751.00000 298681.000  0.02%     -    1s
     0     0 298721.000    0   26 298751.000 298721.000  0.01%     -    1s
     0     0 298721.000    0   18 298751.000 298721.000  0.01%     -    1s
     0     0 298721.000    0   38 298751.000 298721.000  0.01%     -    1s
     0     0 298734.333    0   12 298751.000 298734.333  0.01%     -    1s

Cutting planes:
  Cover: 10
  Clique: 6
  MIR: 25

Explored 0 nodes (2189 simplex iterations) in 1.59 seconds
Thread count was 1 (of 16 available processors)

Solution count 5: 298751 298751 299495 ... 381990
Pool objective bound 298735

Optimal solution found (tolerance 1.00e-04)
Best objective 2.987510000000e+05, best bound 2.987350000000e+05, gap 0.0054%
	MIPObjVal:	298751.0	runtime:	1.5928008556365967	patientsNumber:	152	room Occupancy:	0.12037037037037036	OR Occupancy:	0.0
roomCost:	5570.0	genderPolicy:	0.0	transferCost:	0.0	delayCost:	0.0	overCrowdRisk:	1.0	overtime:	0.0	idleRoom:	42380.0	idleOR:	250800.0	eRoomIdle:	0.0	eORIdle:	0.0	roomU:	0.0	orU:	0.0
Day	3	Optimize a model with 2487 rows, 38519 columns and 351118 nonzeros
Variable types: 250 continuous, 38269 integer (37644 binary)
Coefficient statistics:
  Matrix range     [1e+00, 1e+02]
  Objective range  [1e+00, 2e+03]
  Bounds range     [1e+00, 9e+01]
  RHS range        [1e+00, 3e+03]
Found heuristic solution: objective 382830
Presolve removed 257 rows and 5130 columns
Presolve time: 0.80s
Presolved: 2230 rows, 33389 columns, 271721 nonzeros
Variable types: 0 continuous, 33389 integer (32775 binary)

Root relaxation: objective 2.871010e+05, 692 iterations, 0.05 seconds

    Nodes    |    Current Node    |     Objective Bounds      |     Work
 Expl Unexpl |  Obj  Depth IntInf | Incumbent    BestBd   Gap | It/Node Time

     0     0 287101.000    0   60 382830.000 287101.000  25.0%     -    1s
H    0     0                    287461.00000 287101.000  0.13%     -    1s
H    0     0                    287226.00000 287101.000  0.04%     -    1s
     0     0 287141.000    0   62 287226.000 287141.000  0.03%     -    1s
H    0     0                    287211.00000 287141.000  0.02%     -    1s
     0     0 287141.000    0   46 287211.000 287141.000  0.02%     -    1s
     0     0 287141.333    0   60 287211.000 287141.333  0.02%     -    1s
     0     0 287143.100    0   84 287211.000 287143.100  0.02%     -    1s
     0     0 287174.760    0   71 287211.000 287174.760  0.01%     -    1s
     0     1 287175.624    0   61 287211.000 287175.624  0.01%     -    1s

Cutting planes:
  Gomory: 4
  Cover: 5
  Clique: 15
  MIR: 1
  Zero half: 1

Explored 4 nodes (3468 simplex iterations) in 1.96 seconds
Thread count was 1 (of 16 available processors)

Solution count 6: 287211 287211 287226 ... 382830
Pool objective bound 287187

Optimal solution found (tolerance 1.00e-04)
Best objective 2.872110000000e+05, best bound 2.871870000000e+05, gap 0.0084%
	MIPObjVal:	287211.0	runtime:	1.9614510536193848	patientsNumber:	162	room Occupancy:	0.18981481481481483	OR Occupancy:	0.18667078062326442
roomCost:	5520.0	genderPolicy:	0.0	transferCost:	0.0	delayCost:	0.0	overCrowdRisk:	1.0	overtime:	0.0	idleRoom:	37340.0	idleOR:	244350.0	eRoomIdle:	0.0	eORIdle:	0.0	roomU:	0.0	orU:	0.0
Day	4	Optimize a model with 2402 rows, 35940 columns and 323162 nonzeros
Variable types: 240 continuous, 35700 integer (35100 binary)
Coefficient statistics:
  Matrix range     [1e+00, 1e+02]
  Objective range  [1e+00, 2e+03]
  Bounds range     [1e+00, 9e+01]
  RHS range        [1e+00, 3e+03]
Found heuristic solution: objective 345841
Presolve removed 251 rows and 4369 columns
Presolve time: 0.76s
Presolved: 2151 rows, 31571 columns, 254450 nonzeros
Variable types: 0 continuous, 31571 integer (30988 binary)

Root relaxation: objective 2.509100e+05, 706 iterations, 0.04 seconds

    Nodes    |    Current Node    |     Objective Bounds      |     Work
 Expl Unexpl |  Obj  Depth IntInf | Incumbent    BestBd   Gap | It/Node Time

     0     0 250910.000    0   58 345841.000 250910.000  27.4%     -    0s
H    0     0                    252779.00000 250910.000  0.74%     -    1s
H    0     0                    252360.00000 250910.000  0.57%     -    1s
H    0     0                    250991.00000 250910.000  0.03%     -    1s
     0     0 250938.269    0   49 250991.000 250938.269  0.02%     -    1s
     0     0 250938.269    0   21 250991.000 250938.269  0.02%     -    1s
     0     0 250942.667    0   30 250991.000 250942.667  0.02%     -    1s
     0     0 250971.769    0   17 250991.000 250971.769  0.01%     -    1s

Cutting planes:
  Gomory: 1
  Cover: 12
  Clique: 18
  MIR: 20

Explored 0 nodes (2034 simplex iterations) in 1.55 seconds
Thread count was 1 (of 16 available processors)

Solution count 5: 250991 250991 252360 ... 345841
Pool objective bound 250972

Optimal solution found (tolerance 1.00e-04)
Best objective 2.509910000000e+05, best bound 2.509720000000e+05, gap 0.0076%
	MIPObjVal:	250991.0	runtime:	1.5508382320404053	patientsNumber:	170	room Occupancy:	0.2962962962962963	OR Occupancy:	0.38876889848812096
roomCost:	5800.0	genderPolicy:	0.0	transferCost:	0.0	delayCost:	0.0	overCrowdRisk:	1.0	overtime:	0.0	idleRoom:	32740.0	idleOR:	212450.0	eRoomIdle:	0.0	eORIdle:	0.0	roomU:	0.0	orU:	0.0
Day	5	Optimize a model with 2311 rows, 32182 columns and 261457 nonzeros
Variable types: 230 continuous, 31952 integer (31377 binary)
Coefficient statistics:
  Matrix range     [1e+00, 1e+02]
  Objective range  [1e+00, 2e+03]
  Bounds range     [1e+00, 9e+01]
  RHS range        [1e+00, 3e+03]
Found heuristic solution: objective 301861
Presolve removed 243 rows and 3479 columns
Presolve time: 0.55s
Presolved: 2068 rows, 28703 columns, 211372 nonzeros
Variable types: 0 continuous, 28703 integer (28146 binary)

Root relaxation: objective 2.239000e+05, 635 iterations, 0.04 seconds

    Nodes    |    Current Node    |     Objective Bounds      |     Work
 Expl Unexpl |  Obj  Depth IntInf | Incumbent    BestBd   Gap | It/Node Time

     0     0 223900.000    0   72 301861.000 223900.000  25.8%     -    0s
H    0     0                    226607.00000 223900.000  1.19%     -    0s
H    0     0                    225426.00000 223900.000  0.68%     -    0s
H    0     0                    224067.00000 223900.000  0.07%     -    0s
     0     0 224011.750    0   52 224067.000 224011.750  0.02%     -    1s
     0     0 224011.750    0   46 224067.000 224011.750  0.02%     -    1s
     0     0 224011.750    0   48 224067.000 224011.750  0.02%     -    1s
     0     0 224038.917    0   41 224067.000 224038.917  0.01%     -    1s
     0     0 224048.667    0   13 224067.000 224048.667  0.01%     -    1s

Cutting planes:
  Gomory: 7
  Cover: 37
  Clique: 56
  MIR: 46

Explored 0 nodes (2702 simplex iterations) in 1.54 seconds
Thread count was 1 (of 16 available processors)

Solution count 5: 224067 224067 225426 ... 301861
Pool objective bound 224049

Optimal solution found (tolerance 1.00e-04)
Best objective 2.240670000000e+05, best bound 2.240490000000e+05, gap 0.0080%
	MIPObjVal:	224067.0	runtime:	1.540673017501831	patientsNumber:	172	room Occupancy:	0.36574074074074076	OR Occupancy:	0.2823202715211355
roomCost:	5960.0	genderPolicy:	50.0	transferCost:	0.0	delayCost:	75.0	overCrowdRisk:	2.0	overtime:	0.0	idleRoom:	28780.0	idleOR:	189200.0	eRoomIdle:	0.0	eORIdle:	0.0	roomU:	0.0	orU:	0.0
Day	6	Optimize a model with 2222 rows, 28740 columns and 217787 nonzeros
Variable types: 220 continuous, 28520 integer (27970 binary)
Coefficient statistics:
  Matrix range     [1e+00, 1e+02]
  Objective range  [1e+00, 1e+03]
  Bounds range     [1e+00, 9e+01]
  RHS range        [1e+00, 3e+03]
Found heuristic solution: objective 262731
Presolve removed 235 rows and 3535 columns
Presolve time: 0.44s
Presolved: 1987 rows, 25205 columns, 172657 nonzeros
Variable types: 0 continuous, 25205 integer (24674 binary)

Root relaxation: objective 1.887800e+05, 540 iterations, 0.03 seconds

    Nodes    |    Current Node    |     Objective Bounds      |     Work
 Expl Unexpl |  Obj  Depth IntInf | Incumbent    BestBd   Gap | It/Node Time

     0     0 188780.000    0   30 262731.000 188780.000  28.1%     -    0s
H    0     0                    190122.00000 188780.000  0.71%     -    0s
H    0     0                    190016.00000 188780.000  0.65%     -    0s
H    0     0                    189530.00000 188780.000  0.40%     -    0s
H    0     0                    188961.00000 188780.000  0.10%     -    0s
     0     0 188868.500    0   43 188961.000 188868.500  0.05%     -    0s
     0     0 188868.500    0   34 188961.000 188868.500  0.05%     -    1s
     0     0 188886.000    0   57 188961.000 188886.000  0.04%     -    1s
     0     0 188899.056    0   38 188961.000 188899.056  0.03%     -    1s
     0     0 188921.906    0   33 188961.000 188921.906  0.02%     -    1s
     0     1 188922.667    0   33 188961.000 188922.667  0.02%     -    1s
H    3     3                    188947.00000 188922.667  0.01%  39.7    1s

Cutting planes:
  Gomory: 4
  Cover: 2
  Clique: 5
  Zero half: 1

Explored 7 nodes (2601 simplex iterations) in 1.41 seconds
Thread count was 1 (of 16 available processors)

Solution count 7: 188947 188961 189530 ... 262731
Pool objective bound 188947

Optimal solution found (tolerance 1.00e-04)
Best objective 1.889470000000e+05, best bound 1.889470000000e+05, gap 0.0000%
	MIPObjVal:	188947.0	runtime:	1.4064579010009766	patientsNumber:	176	room Occupancy:	0.4166666666666667	OR Occupancy:	0.1064486269669855
roomCost:	5790.0	genderPolicy:	50.0	transferCost:	0.0	delayCost:	75.0	overCrowdRisk:	2.0	overtime:	0.0	idleRoom:	25280.0	idleOR:	157750.0	eRoomIdle:	0.0	eORIdle:	0.0	roomU:	0.0	orU:	0.0
Day	7	Optimize a model with 2142 rows, 30094 columns and 207999 nonzeros
Variable types: 210 continuous, 29884 integer (29359 binary)
Coefficient statistics:
  Matrix range     [1e+00, 1e+02]
  Objective range  [1e+00, 1e+03]
  Bounds range     [1e+00, 9e+01]
  RHS range        [1e+00, 3e+03]
Found heuristic solution: objective 217036
Presolve removed 212 rows and 4000 columns
Presolve time: 0.47s
Presolved: 1930 rows, 26094 columns, 165558 nonzeros
Variable types: 0 continuous, 26094 integer (25585 binary)

Root relaxation: objective 1.451910e+05, 636 iterations, 0.03 seconds

    Nodes    |    Current Node    |     Objective Bounds      |     Work
 Expl Unexpl |  Obj  Depth IntInf | Incumbent    BestBd   Gap | It/Node Time

     0     0 145191.000    0   30 217036.000 145191.000  33.1%     -    0s
H    0     0                    146557.00000 145191.000  0.93%     -    0s
H    0     0                    145826.00000 145191.000  0.44%     -    0s
H    0     0                    145356.00000 145191.000  0.11%     -    0s
     0     0 145258.833    0   39 145356.000 145258.833  0.07%     -    0s
     0     0 145258.833    0   32 145356.000 145258.833  0.07%     -    1s
     0     0 145268.833    0   46 145356.000 145268.833  0.06%     -    1s
     0     0 145296.000    0   37 145356.000 145296.000  0.04%     -    1s
     0     0 145322.667    0   28 145356.000 145322.667  0.02%     -    1s
     0     1 145347.667    0   28 145356.000 145347.667  0.01%     -    1s

Cutting planes:
  Gomory: 7
  Cover: 26
  Clique: 89
  MIR: 35

Explored 1 nodes (2509 simplex iterations) in 1.37 seconds
Thread count was 1 (of 16 available processors)

Solution count 5: 145356 145826 145826 ... 217036
Pool objective bound 145348

Optimal solution found (tolerance 1.00e-04)
Best objective 1.453560000000e+05, best bound 1.453480000000e+05, gap 0.0055%
	MIPObjVal:	145356.0	runtime:	1.3676600456237793	patientsNumber:	189	room Occupancy:	0.46296296296296297	OR Occupancy:	0.41808083924714595
roomCost:	5550.0	genderPolicy:	100.0	transferCost:	0.0	delayCost:	35.0	overCrowdRisk:	1.0	overtime:	0.0	idleRoom:	21520.0	idleOR:	118150.0	eRoomIdle:	0.0	eORIdle:	0.0	roomU:	0.0	orU:	0.0
Day	8	Optimize a model with 2044 rows, 27589 columns and 176307 nonzeros
Variable types: 200 continuous, 27389 integer (26889 binary)
Coefficient statistics:
  Matrix range     [1e+00, 1e+02]
  Objective range  [1e+00, 1e+03]
  Bounds range     [1e+00, 9e+01]
  RHS range        [1e+00, 3e+03]
Found heuristic solution: objective 179157
Presolve removed 247 rows and 4266 columns
Presolve time: 0.33s
Presolved: 1797 rows, 23323 columns, 137327 nonzeros
Variable types: 0 continuous, 23323 integer (22856 binary)

Root relaxation: objective 1.169120e+05, 551 iterations, 0.02 seconds

    Nodes    |    Current Node    |     Objective Bounds      |     Work
 Expl Unexpl |  Obj  Depth IntInf | Incumbent    BestBd   Gap | It/Node Time

     0     0 116912.000    0   38 179157.000 116912.000  34.7%     -    0s
H    0     0                    118294.00000 116912.000  1.17%     -    0s
H    0     0                    117722.00000 116912.000  0.69%     -    0s
H    0     0                    117404.00000 116912.000  0.42%     -    0s
H    0     0                    117182.00000 116912.000  0.23%     -    0s
     0     0 116959.667    0   32 117182.000 116959.667  0.19%     -    0s
     0     0 116959.667    0   46 117182.000 116959.667  0.19%     -    1s
H    0     0                    117023.00000 116959.667  0.05%     -    1s
     0     0 116985.667    0   43 117023.000 116985.667  0.03%     -    1s
     0     2 116992.000    0   33 117023.000 116992.000  0.03%     -    1s
H    1     1                    117014.00000 116992.000  0.02%  88.0    1s
H    3     3                    117013.00000 116992.000  0.02%  29.3    1s
H    4     3                    117012.00000 116992.000  0.02%  22.0    1s
H   11     9                    116993.00000 116992.000  0.00%  64.8    1s

Explored 11 nodes (3578 simplex iterations) in 1.52 seconds
Thread count was 1 (of 16 available processors)

Solution count 10: 116993 117012 117013 ... 117722
Pool objective bound 116992

Optimal solution found (tolerance 1.00e-04)
Best objective 1.169930000000e+05, best bound 1.169920000000e+05, gap 0.0009%
	MIPObjVal:	116993.0	runtime:	1.5221481323242188	patientsNumber:	184	room Occupancy:	0.33796296296296297	OR Occupancy:	0.0
roomCost:	4670.0	genderPolicy:	50.0	transferCost:	0.0	delayCost:	20.0	overCrowdRisk:	3.0	overtime:	60.0	idleRoom:	18440.0	idleOR:	93750.0	eRoomIdle:	0.0	eORIdle:	0.0	roomU:	0.0	orU:	0.0
Day	9	Optimize a model with 1938 rows, 30759 columns and 198193 nonzeros
Variable types: 190 continuous, 30569 integer (30094 binary)
Coefficient statistics:
  Matrix range     [1e+00, 1e+02]
  Objective range  [1e+00, 1e+03]
  Bounds range     [1e+00, 9e+01]
  RHS range        [1e+00, 3e+03]
Found heuristic solution: objective 173657
Presolve removed 207 rows and 4871 columns
Presolve time: 0.41s
Presolved: 1731 rows, 25888 columns, 156827 nonzeros
Variable types: 0 continuous, 25888 integer (25427 binary)

Root relaxation: objective 1.072640e+05, 557 iterations, 0.03 seconds

    Nodes    |    Current Node    |     Objective Bounds      |     Work
 Expl Unexpl |  Obj  Depth IntInf | Incumbent    BestBd   Gap | It/Node Time

     0     0 107264.000    0   54 173657.000 107264.000  38.2%     -    0s
H    0     0                    109155.00000 107264.000  1.73%     -    0s
H    0     0                    108190.00000 107264.000  0.86%     -    0s
H    0     0                    107295.00000 107264.000  0.03%     -    0s
     0     0 107280.000    0   42 107295.000 107280.000  0.01%     -    0s
     0     0 107280.000    0   31 107295.000 107280.000  0.01%     -    1s
     0     0 107289.500    0   58 107295.000 107289.500  0.01%     -    1s

Cutting planes:
  Gomory: 3
  Cover: 10
  Implied bound: 1
  Clique: 54
  MIR: 10

Explored 0 nodes (1910 simplex iterations) in 1.08 seconds
Thread count was 1 (of 16 available processors)

Solution count 5: 107295 107295 108190 ... 173657
Pool objective bound 107290

Optimal solution found (tolerance 1.00e-04)
Best objective 1.072950000000e+05, best bound 1.072900000000e+05, gap 0.0047%
	MIPObjVal:	107295.0	runtime:	1.084742784500122	patientsNumber:	171	room Occupancy:	0.19444444444444445	OR Occupancy:	0.0
roomCost:	4310.0	genderPolicy:	0.0	transferCost:	0.0	delayCost:	20.0	overCrowdRisk:	5.0	overtime:	60.0	idleRoom:	14900.0	idleOR:	88000.0	eRoomIdle:	0.0	eORIdle:	0.0	roomU:	0.0	orU:	0.0
Day	10	Optimize a model with 1844 rows, 34049 columns and 222179 nonzeros
Variable types: 180 continuous, 33869 integer (33419 binary)
Coefficient statistics:
  Matrix range     [1e+00, 1e+02]
  Objective range  [1e+00, 1e+03]
  Bounds range     [1e+00, 9e+01]
  RHS range        [1e+00, 3e+03]
Found heuristic solution: objective 166122
Presolve removed 168 rows and 5534 columns
Presolve time: 0.43s
Presolved: 1676 rows, 28515 columns, 179324 nonzeros
Variable types: 0 continuous, 28515 integer (28061 binary)

Root relaxation: objective 9.828600e+04, 743 iterations, 0.04 seconds

    Nodes    |    Current Node    |     Objective Bounds      |     Work
 Expl Unexpl |  Obj  Depth IntInf | Incumbent    BestBd   Gap | It/Node Time

     0     0 98286.0000    0   56 166122.000 98286.0000  40.8%     -    0s
H    0     0                    99226.000000 98286.0000  0.95%     -    0s
H    0     0                    98751.000000 98286.0000  0.47%     -    0s
H    0     0                    98426.000000 98286.0000  0.14%     -    0s
     0     0 98381.3889    0   94 98426.0000 98381.3889  0.05%     -    1s
     0     0 98381.3889    0   62 98426.0000 98381.3889  0.05%     -    1s
     0     0 98384.7500    0   81 98426.0000 98384.7500  0.04%     -    1s
     0     1 98392.3333    0   79 98426.0000 98392.3333  0.03%     -    1s

Cutting planes:
  Gomory: 4
  Cover: 24
  Clique: 81
  MIR: 6
  Flow cover: 6
  Zero half: 5

Explored 9 nodes (4526 simplex iterations) in 1.98 seconds
Thread count was 1 (of 16 available processors)

Solution count 6: 98426 98426 98426 ... 166122
Pool objective bound 98418

Optimal solution found (tolerance 1.00e-04)
Best objective 9.842600000000e+04, best bound 9.841800000000e+04, gap 0.0081%
	MIPObjVal:	98426.0	runtime:	1.9847309589385986	patientsNumber:	170	room Occupancy:	0.24074074074074073	OR Occupancy:	0.14964517124344337
roomCost:	4540.0	genderPolicy:	0.0	transferCost:	0.0	delayCost:	40.0	overCrowdRisk:	6.0	overtime:	60.0	idleRoom:	10680.0	idleOR:	83100.0	eRoomIdle:	0.0	eORIdle:	0.0	roomU:	0.0	orU:	0.0
Day	11	Optimize a model with 1756 rows, 33176 columns and 210698 nonzeros
Variable types: 170 continuous, 33006 integer (32581 binary)
Coefficient statistics:
  Matrix range     [1e+00, 1e+02]
  Objective range  [1e+00, 1e+03]
  Bounds range     [1e+00, 9e+01]
  RHS range        [1e+00, 3e+03]
Found heuristic solution: objective 131060
Presolve removed 161 rows and 4588 columns
Presolve time: 0.39s
Presolved: 1595 rows, 28588 columns, 171220 nonzeros
Variable types: 0 continuous, 28588 integer (28165 binary)

Root relaxation: objective 5.851250e+04, 631 iterations, 0.04 seconds

    Nodes    |    Current Node    |     Objective Bounds      |     Work
 Expl Unexpl |  Obj  Depth IntInf | Incumbent    BestBd   Gap | It/Node Time

     0     0 58512.5000    0   59 131060.000 58512.5000  55.4%     -    0s
H    0     0                    60179.000000 58512.5000  2.77%     -    0s
H    0     0                    59554.000000 58512.5000  1.75%     -    0s
H    0     0                    59069.000000 58512.5000  0.94%     -    0s
H    0     0                    58643.000000 58512.5000  0.22%     -    0s
     0     0 58604.6859    0   50 58643.0000 58604.6859  0.07%     -    0s
     0     0 58604.6859    0   57 58643.0000 58604.6859  0.07%     -    1s
     0     0 58620.8079    0   72 58643.0000 58620.8079  0.04%     -    1s
     0     1 58622.1758    0   68 58643.0000 58622.1758  0.04%     -    1s

Cutting planes:
  Gomory: 4
  Cover: 18
  Clique: 49
  MIR: 21

Explored 1 nodes (2749 simplex iterations) in 1.56 seconds
Thread count was 1 (of 16 available processors)

Solution count 6: 58643 59069 59554 ... 131060
Pool objective bound 58643

Optimal solution found (tolerance 1.00e-04)
Best objective 5.864300000000e+04, best bound 5.864300000000e+04, gap 0.0000%
	MIPObjVal:	58643.0	runtime:	1.564965009689331	patientsNumber:	175	room Occupancy:	0.375	OR Occupancy:	0.3856834310398025
roomCost:	4540.0	genderPolicy:	0.0	transferCost:	0.0	delayCost:	105.0	overCrowdRisk:	8.0	overtime:	60.0	idleRoom:	6680.0	idleOR:	47250.0	eRoomIdle:	0.0	eORIdle:	0.0	roomU:	0.0	orU:	0.0
Day	12	Optimize a model with 1667 rows, 28068 columns and 153975 nonzeros
Variable types: 160 continuous, 27908 integer (27508 binary)
Coefficient statistics:
  Matrix range     [1e+00, 1e+02]
  Objective range  [1e+00, 1e+03]
  Bounds range     [1e+00, 9e+01]
  RHS range        [1e+00, 3e+03]
Found heuristic solution: objective 85107
Presolve removed 161 rows and 3653 columns
Presolve time: 0.27s
Presolved: 1506 rows, 24415 columns, 123293 nonzeros
Variable types: 0 continuous, 24415 integer (24020 binary)

Root relaxation: objective 3.168800e+04, 497 iterations, 0.03 seconds

    Nodes    |    Current Node    |     Objective Bounds      |     Work
 Expl Unexpl |  Obj  Depth IntInf | Incumbent    BestBd   Gap | It/Node Time

     0     0 31688.0000    0   40 85107.0000 31688.0000  62.8%     -    0s
H    0     0                    32742.000000 31688.0000  3.22%     -    0s
H    0     0                    32430.000000 31688.0000  2.29%     -    0s
H    0     0                    32086.000000 31688.0000  1.24%     -    0s
     0     0 32058.5000    0   37 32086.0000 32058.5000  0.09%     -    0s
     0     0 32068.2222    0   27 32086.0000 32068.2222  0.06%     -    0s
     0     0 32068.2222    0   27 32086.0000 32068.2222  0.06%     -    0s
     0     0     cutoff    0      32086.0000 32086.0000  0.00%     -    0s

Cutting planes:
  Gomory: 1
  Cover: 1
  Clique: 7

Explored 0 nodes (1416 simplex iterations) in 0.77 seconds
Thread count was 1 (of 16 available processors)

Solution count 4: 32086 32430 32742 85107 
Pool objective bound 32086

Optimal solution found (tolerance 1.00e-04)
Best objective 3.208600000000e+04, best bound 3.208600000000e+04, gap 0.0000%
	MIPObjVal:	32086.0	runtime:	0.768841028213501	patientsNumber:	179	room Occupancy:	0.5416666666666666	OR Occupancy:	0.38876889848812096
roomCost:	3950.0	genderPolicy:	0.0	transferCost:	0.0	delayCost:	170.0	overCrowdRisk:	6.0	overtime:	120.0	idleRoom:	3440.0	idleOR:	24400.0	eRoomIdle:	0.0	eORIdle:	0.0	roomU:	0.0	orU:	0.0
Day	13	Optimize a model with 1571 rows, 21451 columns and 94021 nonzeros
Variable types: 150 continuous, 21301 integer (20926 binary)
Coefficient statistics:
  Matrix range     [1e+00, 1e+02]
  Objective range  [1e+00, 1e+03]
  Bounds range     [1e+00, 9e+01]
  RHS range        [1e+00, 3e+03]
Found heuristic solution: objective 43630
Presolve removed 162 rows and 2624 columns
Presolve time: 0.15s
Presolved: 1409 rows, 18827 columns, 70570 nonzeros
Variable types: 0 continuous, 18827 integer (18468 binary)

Root relaxation: objective 5.478000e+03, 399 iterations, 0.02 seconds

    Nodes    |    Current Node    |     Objective Bounds      |     Work
 Expl Unexpl |  Obj  Depth IntInf | Incumbent    BestBd   Gap | It/Node Time

     0     0 5478.00000    0   20 43630.0000 5478.00000  87.4%     -    0s
H    0     0                    6051.0000000 5478.00000  9.47%     -    0s
H    0     0                    5976.0000000 5478.00000  8.33%     -    0s
H    0     0                    5856.0000000 5478.00000  6.45%     -    0s
     0     0 5852.33333    0   13 5856.00000 5852.33333  0.06%     -    0s

Cutting planes:
  Cover: 5
  Clique: 17
  MIR: 9
  GUB cover: 2

Explored 0 nodes (617 simplex iterations) in 0.34 seconds
Thread count was 1 (of 16 available processors)

Solution count 4: 5856 5976 6051 43630 
Pool objective bound 5856

Optimal solution found (tolerance 1.00e-04)
Best objective 5.856000000000e+03, best bound 5.856000000000e+03, gap 0.0000%
	MIPObjVal:	5856.0	runtime:	0.34016895294189453	patientsNumber:	176	room Occupancy:	0.7129629629629629	OR Occupancy:	0.9456957729095958
roomCost:	2530.0	genderPolicy:	0.0	transferCost:	0.0	delayCost:	215.0	overCrowdRisk:	1.0	overtime:	120.0	idleRoom:	1240.0	idleOR:	1750.0	eRoomIdle:	0.0	eORIdle:	0.0	roomU:	0.0	orU:	0.0
Violations:	0	Total ObjVal:	19177	Runtime:	0.0	Room occupancy ratio:	0.44277778	OR occupancy ratio:	0.34629628
The dynamic result in	./Results/FS2LowO/or_pas_dept2_short03_sol0.xml	violations:	0	total ObjVal:	19177	runtime:	26.381	average_patient_number:	168
